Model status
Optimal

# Primal solution values
Feasible
Objective 0
# Columns 4225
V0000 0
V0001 0
V0002 0
V0003 0
V0004 0
V0005 0
V0006 0
V0007 0
V0008 0
V0009 0
V0010 0
V0011 0
V0012 0
V0013 0
V0014 0
V0015 0
V0016 0
V0017 0
V0018 0
V0019 0
V0020 0
V0021 0
V0022 0
V0023 0
V0024 0
V0025 0
V0026 0
V0027 0
V0028 0
V0029 0
V0030 0
V0031 0
V0032 0
V0033 0
V0034 0
V0035 0
V0036 0
V0037 0
V0038 0
V0039 0
V0040 0
V0041 0
V0042 0
V0043 1
V0044 0
V0045 0
V0046 0
V0047 0
V0048 0
V0049 0
V0050 0
V0051 0
V0052 0
V0053 0
V0054 0
V0055 0
V0056 0
V0057 0
V0058 0
V0059 0
V0060 0
V0061 0
V0062 0
V0063 0
V0064 0
V0065 0
V0066 0
V0067 0
V0068 0
V0069 0
V0070 0
V0071 0
V0072 0
V0073 0
V0074 0
V0075 0
V0076 0
V0077 0
V0078 0
V0079 0
V0080 0
V0081 0
V0082 0
V0083 0
V0084 0
V0085 0
V0086 0
V0087 0
V0088 0
V0089 0
V0090 0
V0091 0
V0092 0
V0093 0
V0094 0
V0095 0
V0096 0
V0097 0
V0098 0
V0099 0
V0100 0
V0101 0
V0102 0
V0103 1
V0104 0
V0105 0
V0106 0
V0107 0
V0108 0
V0109 0
V0110 0
V0111 0
V0112 0
V0113 0
V0114 0
V0115 0
V0116 0
V0117 0
V0118 0
V0119 0
V0120 0
V0121 0
V0122 0
V0123 0
V0124 0
V0125 0
V0126 0
V0127 0
V0128 0
V0129 0
V0130 0
V0131 0
V0132 0
V0133 0
V0134 0
V0135 0
V0136 0
V0137 0
V0138 0
V0139 0
V0140 0
V0141 0
V0142 0
V0143 0
V0144 0
V0145 0
V0146 0
V0147 0
V0148 0
V0149 0
V0150 0
V0151 0
V0152 0
V0153 0
V0154 0
V0155 0
V0156 0
V0157 0
V0158 0
V0159 0
V0160 0
V0161 0
V0162 0
V0163 0
V0164 0
V0165 0
V0166 1
V0167 0
V0168 0
V0169 0
V0170 0
V0171 0
V0172 0
V0173 0
V0174 0
V0175 0
V0176 0
V0177 0
V0178 0
V0179 0
V0180 0
V0181 0
V0182 0
V0183 0
V0184 0
V0185 0
V0186 0
V0187 0
V0188 0
V0189 0
V0190 0
V0191 0
V0192 0
V0193 0
V0194 0
V0195 0
V0196 0
V0197 0
V0198 0
V0199 0
V0200 0
V0201 0
V0202 0
V0203 0
V0204 0
V0205 0
V0206 0
V0207 0
V0208 0
V0209 0
V0210 0
V0211 0
V0212 0
V0213 0
V0214 0
V0215 0
V0216 0
V0217 0
V0218 0
V0219 0
V0220 0
V0221 0
V0222 0
V0223 0
V0224 0
V0225 0
V0226 0
V0227 0
V0228 0
V0229 0
V0230 0
V0231 0
V0232 0
V0233 0
V0234 0
V0235 0
V0236 0
V0237 1
V0238 0
V0239 0
V0240 0
V0241 0
V0242 0
V0243 0
V0244 0
V0245 0
V0246 0
V0247 0
V0248 0
V0249 0
V0250 0
V0251 0
V0252 0
V0253 0
V0254 0
V0255 0
V0256 0
V0257 0
V0258 0
V0259 0
V0260 0
V0261 0
V0262 0
V0263 0
V0264 0
V0265 0
V0266 0
V0267 0
V0268 0
V0269 0
V0270 0
V0271 0
V0272 0
V0273 0
V0274 1
V0275 0
V0276 0
V0277 0
V0278 0
V0279 0
V0280 0
V0281 0
V0282 0
V0283 0
V0284 0
V0285 0
V0286 0
V0287 0
V0288 0
V0289 0
V0290 0
V0291 0
V0292 0
V0293 0
V0294 0
V0295 0
V0296 0
V0297 0
V0298 0
V0299 0
V0300 0
V0301 0
V0302 0
V0303 0
V0304 0
V0305 0
V0306 0
V0307 0
V0308 0
V0309 0
V0310 0
V0311 0
V0312 0
V0313 0
V0314 0
V0315 0
V0316 0
V0317 0
V0318 0
V0319 0
V0320 0
V0321 0
V0322 0
V0323 0
V0324 0
V0325 0
V0326 0
V0327 0
V0328 0
V0329 0
V0330 0
V0331 0
V0332 0
V0333 0
V0334 0
V0335 0
V0336 0
V0337 0
V0338 0
V0339 0
V0340 0
V0341 0
V0342 0
V0343 0
V0344 0
V0345 0
V0346 0
V0347 0
V0348 0
V0349 0
V0350 0
V0351 0
V0352 0
V0353 1
V0354 0
V0355 0
V0356 0
V0357 0
V0358 0
V0359 0
V0360 0
V0361 0
V0362 0
V0363 0
V0364 0
V0365 0
V0366 0
V0367 0
V0368 0
V0369 0
V0370 0
V0371 0
V0372 0
V0373 0
V0374 0
V0375 0
V0376 0
V0377 0
V0378 0
V0379 0
V0380 0
V0381 0
V0382 0
V0383 0
V0384 0
V0385 0
V0386 0
V0387 0
V0388 0
V0389 0
V0390 0
V0391 0
V0392 0
V0393 0
V0394 0
V0395 0
V0396 0
V0397 0
V0398 0
V0399 0
V0400 0
V0401 0
V0402 0
V0403 0
V0404 0
V0405 0
V0406 0
V0407 0
V0408 0
V0409 0
V0410 0
V0411 0
V0412 0
V0413 0
V0414 0
V0415 0
V0416 0
V0417 0
V0418 0
V0419 0
V0420 0
V0421 0
V0422 0
V0423 0
V0424 0
V0425 0
V0426 0
V0427 0
V0428 0
V0429 0
V0430 0
V0431 0
V0432 0
V0433 0
V0434 1
V0435 0
V0436 0
V0437 0
V0438 0
V0439 0
V0440 0
V0441 0
V0442 0
V0443 0
V0444 0
V0445 0
V0446 0
V0447 0
V0448 0
V0449 0
V0450 0
V0451 0
V0452 0
V0453 0
V0454 0
V0455 0
V0456 0
V0457 0
V0458 0
V0459 0
V0460 0
V0461 0
V0462 0
V0463 0
V0464 0
V0465 0
V0466 0
V0467 0
V0468 0
V0469 0
V0470 0
V0471 0
V0472 0
V0473 0
V0474 0
V0475 0
V0476 0
V0477 0
V0478 0
V0479 0
V0480 0
V0481 0
V0482 0
V0483 0
V0484 0
V0485 0
V0486 0
V0487 0
V0488 0
V0489 0
V0490 0
V0491 0
V0492 0
V0493 0
V0494 0
V0495 0
V0496 0
V0497 0
V0498 0
V0499 0
V0500 0
V0501 0
V0502 0
V0503 0
V0504 0
V0505 0
V0506 0
V0507 0
V0508 0
V0509 0
V0510 0
V0511 0
V0512 0
V0513 0
V0514 0
V0515 0
V0516 0
V0517 1
V0518 0
V0519 0
V0520 0
V0521 0
V0522 0
V0523 0
V0524 0
V0525 0
V0526 0
V0527 0
V0528 0
V0529 0
V0530 0
V0531 0
V0532 0
V0533 0
V0534 0
V0535 0
V0536 0
V0537 0
V0538 0
V0539 0
V0540 0
V0541 1
V0542 0
V0543 0
V0544 0
V0545 0
V0546 0
V0547 0
V0548 0
V0549 0
V0550 0
V0551 0
V0552 0
V0553 0
V0554 0
V0555 0
V0556 0
V0557 0
V0558 0
V0559 0
V0560 0
V0561 0
V0562 0
V0563 0
V0564 0
V0565 0
V0566 0
V0567 0
V0568 0
V0569 0
V0570 0
V0571 0
V0572 0
V0573 0
V0574 0
V0575 0
V0576 0
V0577 0
V0578 0
V0579 0
V0580 0
V0581 0
V0582 0
V0583 0
V0584 0
V0585 0
V0586 0
V0587 0
V0588 0
V0589 0
V0590 0
V0591 0
V0592 0
V0593 0
V0594 0
V0595 0
V0596 0
V0597 0
V0598 0
V0599 0
V0600 0
V0601 0
V0602 1
V0603 0
V0604 0
V0605 0
V0606 0
V0607 0
V0608 0
V0609 0
V0610 0
V0611 0
V0612 0
V0613 0
V0614 0
V0615 0
V0616 0
V0617 0
V0618 0
V0619 0
V0620 0
V0621 0
V0622 0
V0623 0
V0624 0
V0625 0
V0626 0
V0627 0
V0628 0
V0629 0
V0630 0
V0631 0
V0632 0
V0633 0
V0634 0
V0635 0
V0636 0
V0637 0
V0638 0
V0639 0
V0640 0
V0641 0
V0642 0
V0643 0
V0644 0
V0645 0
V0646 0
V0647 0
V0648 0
V0649 0
V0650 0
V0651 0
V0652 0
V0653 0
V0654 0
V0655 0
V0656 0
V0657 0
V0658 0
V0659 0
V0660 0
V0661 0
V0662 0
V0663 0
V0664 0
V0665 0
V0666 0
V0667 0
V0668 0
V0669 0
V0670 0
V0671 0
V0672 0
V0673 0
V0674 0
V0675 0
V0676 0
V0677 0
V0678 0
V0679 0
V0680 0
V0681 0
V0682 0
V0683 0
V0684 0
V0685 0
V0686 0
V0687 0
V0688 0
V0689 0
V0690 0
V0691 0
V0692 0
V0693 0
V0694 0
V0695 0
V0696 0
V0697 0
V0698 0
V0699 0
V0700 0
V0701 0
V0702 1
V0703 0
V0704 0
V0705 0
V0706 0
V0707 0
V0708 0
V0709 0
V0710 0
V0711 0
V0712 0
V0713 0
V0714 0
V0715 0
V0716 1
V0717 0
V0718 0
V0719 0
V0720 0
V0721 0
V0722 0
V0723 0
V0724 0
V0725 0
V0726 0
V0727 0
V0728 0
V0729 0
V0730 0
V0731 0
V0732 0
V0733 0
V0734 0
V0735 0
V0736 0
V0737 0
V0738 0
V0739 0
V0740 0
V0741 0
V0742 0
V0743 0
V0744 0
V0745 0
V0746 0
V0747 0
V0748 0
V0749 0
V0750 0
V0751 0
V0752 0
V0753 0
V0754 0
V0755 0
V0756 0
V0757 0
V0758 0
V0759 0
V0760 0
V0761 0
V0762 0
V0763 0
V0764 0
V0765 0
V0766 0
V0767 0
V0768 0
V0769 0
V0770 0
V0771 0
V0772 0
V0773 0
V0774 0
V0775 0
V0776 0
V0777 0
V0778 0
V0779 0
V0780 0
V0781 0
V0782 0
V0783 0
V0784 0
V0785 0
V0786 0
V0787 0
V0788 0
V0789 0
V0790 1
V0791 0
V0792 0
V0793 0
V0794 0
V0795 0
V0796 0
V0797 0
V0798 0
V0799 0
V0800 0
V0801 0
V0802 0
V0803 0
V0804 0
V0805 0
V0806 0
V0807 0
V0808 0
V0809 0
V0810 0
V0811 0
V0812 0
V0813 0
V0814 0
V0815 0
V0816 0
V0817 0
V0818 0
V0819 0
V0820 0
V0821 0
V0822 0
V0823 0
V0824 0
V0825 0
V0826 0
V0827 0
V0828 0
V0829 0
V0830 0
V0831 0
V0832 0
V0833 0
V0834 0
V0835 0
V0836 0
V0837 0
V0838 0
V0839 0
V0840 0
V0841 0
V0842 0
V0843 0
V0844 0
V0845 0
V0846 0
V0847 0
V0848 0
V0849 0
V0850 0
V0851 1
V0852 0
V0853 0
V0854 0
V0855 0
V0856 0
V0857 0
V0858 0
V0859 0
V0860 0
V0861 0
V0862 0
V0863 0
V0864 0
V0865 0
V0866 0
V0867 0
V0868 0
V0869 0
V0870 0
V0871 0
V0872 0
V0873 0
V0874 0
V0875 0
V0876 0
V0877 0
V0878 0
V0879 0
V0880 0
V0881 0
V0882 0
V0883 0
V0884 0
V0885 0
V0886 0
V0887 0
V0888 0
V0889 0
V0890 0
V0891 0
V0892 0
V0893 0
V0894 0
V0895 0
V0896 0
V0897 0
V0898 0
V0899 0
V0900 0
V0901 0
V0902 0
V0903 0
V0904 0
V0905 0
V0906 0
V0907 0
V0908 0
V0909 0
V0910 0
V0911 0
V0912 0
V0913 0
V0914 0
V0915 0
V0916 0
V0917 0
V0918 0
V0919 0
V0920 0
V0921 0
V0922 0
V0923 0
V0924 0
V0925 0
V0926 0
V0927 0
V0928 0
V0929 0
V0930 0
V0931 0
V0932 0
V0933 0
V0934 0
V0935 0
V0936 0
V0937 0
V0938 0
V0939 0
V0940 0
V0941 0
V0942 0
V0943 0
V0944 0
V0945 0
V0946 0
V0947 0
V0948 0
V0949 0
V0950 0
V0951 0
V0952 0
V0953 0
V0954 0
V0955 0
V0956 0
V0957 0
V0958 0
V0959 0
V0960 0
V0961 0
V0962 0
V0963 0
V0964 0
V0965 0
V0966 0
V0967 0
V0968 0
V0969 0
V0970 1
V0971 0
V0972 0
V0973 0
V0974 0
V0975 0
V0976 0
V0977 0
V0978 0
V0979 0
V0980 0
V0981 0
V0982 0
V0983 0
V0984 1
V0985 0
V0986 0
V0987 0
V0988 0
V0989 0
V0990 0
V0991 0
V0992 0
V0993 0
V0994 0
V0995 0
V0996 0
V0997 0
V0998 0
V0999 0
V1000 0
V1001 0
V1002 0
V1003 0
V1004 0
V1005 0
V1006 0
V1007 0
V1008 0
V1009 0
V1010 0
V1011 0
V1012 0
V1013 0
V1014 0
V1015 0
V1016 0
V1017 0
V1018 0
V1019 0
V1020 0
V1021 0
V1022 0
V1023 0
V1024 0
V1025 0
V1026 0
V1027 0
V1028 0
V1029 0
V1030 0
V1031 0
V1032 0
V1033 0
V1034 0
V1035 0
V1036 0
V1037 0
V1038 0
V1039 0
V1040 0
V1041 0
V1042 0
V1043 0
V1044 0
V1045 0
V1046 0
V1047 0
V1048 0
V1049 0
V1050 0
V1051 0
V1052 0
V1053 0
V1054 0
V1055 0
V1056 0
V1057 0
V1058 0
V1059 1
V1060 0
V1061 0
V1062 0
V1063 0
V1064 0
V1065 0
V1066 0
V1067 0
V1068 0
V1069 0
V1070 0
V1071 0
V1072 0
V1073 0
V1074 0
V1075 0
V1076 0
V1077 0
V1078 0
V1079 0
V1080 0
V1081 0
V1082 0
V1083 0
V1084 0
V1085 0
V1086 0
V1087 0
V1088 0
V1089 0
V1090 0
V1091 0
V1092 0
V1093 0
V1094 0
V1095 0
V1096 0
V1097 0
V1098 0
V1099 0
V1100 0
V1101 0
V1102 0
V1103 0
V1104 0
V1105 0
V1106 0
V1107 0
V1108 0
V1109 0
V1110 0
V1111 0
V1112 0
V1113 0
V1114 0
V1115 0
V1116 0
V1117 0
V1118 0
V1119 0
V1120 0
V1121 0
V1122 0
V1123 0
V1124 0
V1125 0
V1126 0
V1127 0
V1128 0
V1129 0
V1130 0
V1131 0
V1132 0
V1133 0
V1134 0
V1135 0
V1136 0
V1137 0
V1138 0
V1139 1
V1140 0
V1141 0
V1142 0
V1143 0
V1144 0
V1145 0
V1146 0
V1147 0
V1148 0
V1149 0
V1150 0
V1151 0
V1152 0
V1153 0
V1154 0
V1155 0
V1156 0
V1157 0
V1158 0
V1159 0
V1160 0
V1161 0
V1162 0
V1163 0
V1164 0
V1165 0
V1166 0
V1167 0
V1168 0
V1169 0
V1170 0
V1171 0
V1172 0
V1173 0
V1174 0
V1175 0
V1176 0
V1177 0
V1178 0
V1179 0
V1180 0
V1181 0
V1182 0
V1183 0
V1184 0
V1185 0
V1186 0
V1187 0
V1188 0
V1189 0
V1190 0
V1191 0
V1192 0
V1193 0
V1194 0
V1195 0
V1196 0
V1197 0
V1198 0
V1199 0
V1200 0
V1201 0
V1202 0
V1203 0
V1204 0
V1205 0
V1206 0
V1207 0
V1208 0
V1209 0
V1210 0
V1211 0
V1212 0
V1213 0
V1214 0
V1215 1
V1216 0
V1217 0
V1218 0
V1219 0
V1220 0
V1221 0
V1222 0
V1223 0
V1224 0
V1225 0
V1226 0
V1227 0
V1228 0
V1229 0
V1230 0
V1231 0
V1232 0
V1233 0
V1234 0
V1235 0
V1236 0
V1237 0
V1238 0
V1239 0
V1240 0
V1241 0
V1242 0
V1243 0
V1244 0
V1245 0
V1246 0
V1247 0
V1248 0
V1249 0
V1250 0
V1251 0
V1252 0
V1253 0
V1254 0
V1255 0
V1256 0
V1257 0
V1258 0
V1259 0
V1260 0
V1261 0
V1262 0
V1263 0
V1264 0
V1265 0
V1266 0
V1267 0
V1268 0
V1269 0
V1270 0
V1271 0
V1272 0
V1273 0
V1274 0
V1275 0
V1276 0
V1277 0
V1278 0
V1279 0
V1280 0
V1281 0
V1282 0
V1283 0
V1284 0
V1285 0
V1286 1
V1287 0
V1288 0
V1289 0
V1290 0
V1291 0
V1292 0
V1293 0
V1294 0
V1295 0
V1296 0
V1297 0
V1298 0
V1299 0
V1300 0
V1301 0
V1302 0
V1303 0
V1304 0
V1305 0
V1306 0
V1307 0
V1308 0
V1309 0
V1310 0
V1311 0
V1312 0
V1313 0
V1314 0
V1315 0
V1316 0
V1317 0
V1318 0
V1319 0
V1320 0
V1321 0
V1322 0
V1323 0
V1324 0
V1325 0
V1326 0
V1327 0
V1328 0
V1329 0
V1330 0
V1331 0
V1332 0
V1333 0
V1334 0
V1335 0
V1336 0
V1337 0
V1338 0
V1339 0
V1340 0
V1341 0
V1342 0
V1343 0
V1344 0
V1345 0
V1346 0
V1347 0
V1348 1
V1349 0
V1350 0
V1351 0
V1352 0
V1353 0
V1354 0
V1355 0
V1356 0
V1357 0
V1358 0
V1359 0
V1360 0
V1361 0
V1362 0
V1363 0
V1364 0
V1365 0
V1366 0
V1367 0
V1368 0
V1369 0
V1370 0
V1371 0
V1372 0
V1373 0
V1374 0
V1375 0
V1376 0
V1377 0
V1378 0
V1379 0
V1380 0
V1381 0
V1382 0
V1383 0
V1384 0
V1385 0
V1386 0
V1387 0
V1388 0
V1389 0
V1390 0
V1391 0
V1392 0
V1393 0
V1394 0
V1395 0
V1396 0
V1397 0
V1398 0
V1399 0
V1400 0
V1401 0
V1402 0
V1403 0
V1404 1
V1405 0
V1406 0
V1407 0
V1408 0
V1409 0
V1410 0
V1411 0
V1412 0
V1413 0
V1414 0
V1415 0
V1416 0
V1417 0
V1418 0
V1419 0
V1420 0
V1421 0
V1422 0
V1423 0
V1424 0
V1425 0
V1426 0
V1427 0
V1428 0
V1429 0
V1430 0
V1431 0
V1432 0
V1433 0
V1434 0
V1435 0
V1436 0
V1437 0
V1438 0
V1439 0
V1440 0
V1441 0
V1442 0
V1443 0
V1444 0
V1445 0
V1446 0
V1447 0
V1448 0
V1449 0
V1450 0
V1451 0
V1452 0
V1453 0
V1454 0
V1455 0
V1456 0
V1457 1
V1458 0
V1459 0
V1460 0
V1461 0
V1462 0
V1463 0
V1464 0
V1465 0
V1466 0
V1467 0
V1468 0
V1469 0
V1470 0
V1471 0
V1472 0
V1473 0
V1474 0
V1475 0
V1476 0
V1477 0
V1478 0
V1479 0
V1480 0
V1481 0
V1482 0
V1483 0
V1484 0
V1485 0
V1486 0
V1487 0
V1488 0
V1489 0
V1490 0
V1491 0
V1492 0
V1493 0
V1494 0
V1495 0
V1496 0
V1497 0
V1498 0
V1499 0
V1500 0
V1501 0
V1502 1
V1503 0
V1504 0
V1505 0
V1506 0
V1507 0
V1508 0
V1509 0
V1510 0
V1511 0
V1512 0
V1513 0
V1514 0
V1515 0
V1516 0
V1517 0
V1518 0
V1519 0
V1520 0
V1521 0
V1522 0
V1523 0
V1524 0
V1525 0
V1526 0
V1527 0
V1528 0
V1529 0
V1530 0
V1531 0
V1532 0
V1533 0
V1534 0
V1535 0
V1536 0
V1537 0
V1538 0
V1539 0
V1540 0
V1541 0
V1542 0
V1543 0
V1544 0
V1545 0
V1546 0
V1547 0
V1548 0
V1549 0
V1550 0
V1551 0
V1552 0
V1553 0
V1554 0
V1555 0
V1556 0
V1557 0
V1558 0
V1559 0
V1560 0
V1561 0
V1562 0
V1563 0
V1564 0
V1565 0
V1566 0
V1567 0
V1568 0
V1569 0
V1570 0
V1571 0
V1572 0
V1573 0
V1574 0
V1575 0
V1576 0
V1577 0
V1578 0
V1579 0
V1580 0
V1581 0
V1582 0
V1583 0
V1584 0
V1585 0
V1586 0
V1587 0
V1588 0
V1589 0
V1590 0
V1591 0
V1592 0
V1593 0
V1594 0
V1595 0
V1596 0
V1597 0
V1598 0
V1599 0
V1600 0
V1601 0
V1602 0
V1603 0
V1604 0
V1605 0
V1606 0
V1607 0
V1608 0
V1609 0
V1610 0
V1611 0
V1612 0
V1613 0
V1614 0
V1615 1
V1616 0
V1617 0
V1618 0
V1619 0
V1620 0
V1621 0
V1622 0
V1623 0
V1624 0
V1625 0
V1626 0
V1627 0
V1628 0
V1629 0
V1630 0
V1631 0
V1632 0
V1633 0
V1634 0
V1635 0
V1636 0
V1637 0
V1638 0
V1639 0
V1640 0
V1641 0
V1642 0
V1643 0
V1644 0
V1645 0
V1646 0
V1647 0
V1648 0
V1649 0
V1650 0
V1651 0
V1652 0
V1653 0
V1654 0
V1655 0
V1656 0
V1657 0
V1658 0
V1659 0
V1660 0
V1661 0
V1662 0
V1663 0
V1664 0
V1665 0
V1666 0
V1667 0
V1668 0
V1669 0
V1670 0
V1671 0
V1672 0
V1673 0
V1674 0
V1675 1
V1676 0
V1677 0
V1678 0
V1679 0
V1680 0
V1681 0
V1682 0
V1683 0
V1684 0
V1685 0
V1686 0
V1687 0
V1688 0
V1689 0
V1690 0
V1691 0
V1692 0
V1693 0
V1694 0
V1695 0
V1696 0
V1697 0
V1698 0
V1699 0
V1700 0
V1701 0
V1702 0
V1703 0
V1704 0
V1705 0
V1706 0
V1707 0
V1708 0
V1709 0
V1710 0
V1711 0
V1712 0
V1713 0
V1714 0
V1715 0
V1716 0
V1717 0
V1718 0
V1719 0
V1720 0
V1721 0
V1722 1
V1723 0
V1724 0
V1725 0
V1726 0
V1727 0
V1728 0
V1729 0
V1730 0
V1731 0
V1732 0
V1733 0
V1734 0
V1735 0
V1736 0
V1737 0
V1738 0
V1739 0
V1740 0
V1741 0
V1742 0
V1743 0
V1744 0
V1745 0
V1746 0
V1747 0
V1748 0
V1749 0
V1750 0
V1751 0
V1752 0
V1753 0
V1754 0
V1755 0
V1756 0
V1757 0
V1758 0
V1759 0
V1760 0
V1761 0
V1762 0
V1763 0
V1764 0
V1765 0
V1766 0
V1767 0
V1768 0
V1769 0
V1770 0
V1771 0
V1772 0
V1773 0
V1774 0
V1775 0
V1776 0
V1777 0
V1778 0
V1779 0
V1780 0
V1781 0
V1782 0
V1783 0
V1784 0
V1785 0
V1786 0
V1787 0
V1788 0
V1789 0
V1790 0
V1791 0
V1792 0
V1793 0
V1794 0
V1795 0
V1796 0
V1797 0
V1798 0
V1799 0
V1800 0
V1801 0
V1802 0
V1803 0
V1804 0
V1805 0
V1806 0
V1807 0
V1808 1
V1809 0
V1810 0
V1811 0
V1812 0
V1813 0
V1814 0
V1815 0
V1816 0
V1817 0
V1818 0
V1819 0
V1820 0
V1821 0
V1822 0
V1823 0
V1824 0
V1825 0
V1826 0
V1827 0
V1828 0
V1829 0
V1830 0
V1831 0
V1832 0
V1833 0
V1834 0
V1835 0
V1836 0
V1837 0
V1838 0
V1839 0
V1840 0
V1841 0
V1842 0
V1843 0
V1844 0
V1845 0
V1846 0
V1847 0
V1848 0
V1849 1
V1850 0
V1851 0
V1852 0
V1853 0
V1854 0
V1855 0
V1856 0
V1857 0
V1858 0
V1859 0
V1860 0
V1861 0
V1862 0
V1863 0
V1864 0
V1865 0
V1866 0
V1867 0
V1868 0
V1869 0
V1870 0
V1871 0
V1872 0
V1873 0
V1874 0
V1875 0
V1876 0
V1877 0
V1878 0
V1879 0
V1880 0
V1881 0
V1882 0
V1883 0
V1884 0
V1885 0
V1886 0
V1887 0
V1888 0
V1889 0
V1890 0
V1891 0
V1892 0
V1893 0
V1894 0
V1895 0
V1896 0
V1897 0
V1898 0
V1899 0
V1900 0
V1901 0
V1902 0
V1903 0
V1904 0
V1905 0
V1906 0
V1907 0
V1908 0
V1909 0
V1910 0
V1911 0
V1912 0
V1913 0
V1914 0
V1915 0
V1916 0
V1917 0
V1918 0
V1919 0
V1920 0
V1921 0
V1922 0
V1923 0
V1924 0
V1925 0
V1926 0
V1927 0
V1928 0
V1929 0
V1930 0
V1931 0
V1932 0
V1933 0
V1934 0
V1935 0
V1936 0
V1937 0
V1938 0
V1939 0
V1940 0
V1941 0
V1942 0
V1943 1
V1944 0
V1945 0
V1946 0
V1947 0
V1948 0
V1949 0
V1950 0
V1951 0
V1952 1
V1953 0
V1954 0
V1955 0
V1956 0
V1957 0
V1958 0
V1959 0
V1960 0
V1961 0
V1962 0
V1963 0
V1964 0
V1965 0
V1966 0
V1967 0
V1968 0
V1969 0
V1970 0
V1971 0
V1972 0
V1973 0
V1974 0
V1975 0
V1976 0
V1977 0
V1978 0
V1979 0
V1980 0
V1981 0
V1982 0
V1983 0
V1984 0
V1985 0
V1986 0
V1987 0
V1988 0
V1989 0
V1990 0
V1991 0
V1992 0
V1993 0
V1994 0
V1995 0
V1996 0
V1997 0
V1998 0
V1999 0
V2000 0
V2001 0
V2002 0
V2003 0
V2004 0
V2005 0
V2006 0
V2007 0
V2008 0
V2009 0
V2010 0
V2011 0
V2012 0
V2013 0
V2014 0
V2015 1
V2016 0
V2017 0
V2018 0
V2019 0
V2020 0
V2021 0
V2022 0
V2023 0
V2024 0
V2025 0
V2026 0
V2027 0
V2028 0
V2029 0
V2030 0
V2031 0
V2032 0
V2033 0
V2034 0
V2035 0
V2036 0
V2037 0
V2038 0
V2039 0
V2040 0
V2041 0
V2042 0
V2043 0
V2044 0
V2045 0
V2046 0
V2047 0
V2048 0
V2049 0
V2050 0
V2051 0
V2052 0
V2053 0
V2054 0
V2055 0
V2056 0
V2057 0
V2058 0
V2059 0
V2060 0
V2061 0
V2062 0
V2063 0
V2064 0
V2065 0
V2066 0
V2067 0
V2068 0
V2069 0
V2070 0
V2071 0
V2072 0
V2073 0
V2074 0
V2075 0
V2076 0
V2077 0
V2078 0
V2079 0
V2080 0
V2081 0
V2082 0
V2083 0
V2084 0
V2085 0
V2086 0
V2087 0
V2088 0
V2089 0
V2090 0
V2091 0
V2092 0
V2093 0
V2094 0
V2095 0
V2096 0
V2097 0
V2098 0
V2099 0
V2100 0
V2101 0
V2102 0
V2103 0
V2104 0
V2105 0
V2106 0
V2107 0
V2108 0
V2109 0
V2110 0
V2111 0
V2112 0
V2113 0
V2114 0
V2115 0
V2116 0
V2117 0
V2118 0
V2119 0
V2120 0
V2121 0
V2122 0
V2123 0
V2124 0
V2125 0
V2126 0
V2127 0
V2128 0
V2129 0
V2130 0
V2131 0
V2132 0
V2133 0
V2134 0
V2135 0
V2136 1
V2137 0
V2138 0
V2139 0
V2140 0
V2141 0
V2142 0
V2143 0
V2144 0
V2145 0
V2146 0
V2147 0
V2148 0
V2149 0
V2150 0
V2151 0
V2152 0
V2153 0
V2154 0
V2155 0
V2156 0
V2157 0
V2158 0
V2159 0
V2160 0
V2161 0
V2162 0
V2163 0
V2164 0
V2165 0
V2166 0
V2167 0
V2168 0
V2169 0
V2170 0
V2171 0
V2172 0
V2173 0
V2174 0
V2175 0
V2176 0
V2177 0
V2178 0
V2179 0
V2180 0
V2181 0
V2182 0
V2183 0
V2184 0
V2185 0
V2186 0
V2187 0
V2188 0
V2189 0
V2190 0
V2191 0
V2192 0
V2193 0
V2194 1
V2195 0
V2196 0
V2197 0
V2198 0
V2199 0
V2200 0
V2201 0
V2202 0
V2203 0
V2204 0
V2205 0
V2206 0
V2207 0
V2208 0
V2209 0
V2210 0
V2211 0
V2212 0
V2213 0
V2214 0
V2215 0
V2216 0
V2217 0
V2218 0
V2219 0
V2220 0
V2221 0
V2222 0
V2223 1
V2224 0
V2225 0
V2226 0
V2227 0
V2228 0
V2229 0
V2230 0
V2231 0
V2232 0
V2233 0
V2234 0
V2235 0
V2236 0
V2237 0
V2238 0
V2239 0
V2240 0
V2241 0
V2242 0
V2243 0
V2244 0
V2245 0
V2246 0
V2247 0
V2248 0
V2249 0
V2250 0
V2251 0
V2252 0
V2253 0
V2254 0
V2255 0
V2256 0
V2257 0
V2258 0
V2259 0
V2260 0
V2261 0
V2262 0
V2263 0
V2264 0
V2265 0
V2266 0
V2267 0
V2268 0
V2269 0
V2270 0
V2271 0
V2272 0
V2273 0
V2274 0
V2275 0
V2276 0
V2277 0
V2278 0
V2279 0
V2280 0
V2281 0
V2282 0
V2283 0
V2284 0
V2285 0
V2286 0
V2287 0
V2288 0
V2289 0
V2290 0
V2291 0
V2292 0
V2293 0
V2294 0
V2295 0
V2296 0
V2297 0
V2298 0
V2299 0
V2300 0
V2301 0
V2302 0
V2303 0
V2304 0
V2305 0
V2306 0
V2307 0
V2308 0
V2309 0
V2310 0
V2311 0
V2312 0
V2313 0
V2314 0
V2315 0
V2316 0
V2317 0
V2318 0
V2319 0
V2320 0
V2321 0
V2322 0
V2323 0
V2324 0
V2325 0
V2326 0
V2327 0
V2328 0
V2329 0
V2330 0
V2331 0
V2332 1
V2333 0
V2334 0
V2335 0
V2336 0
V2337 0
V2338 0
V2339 0
V2340 0
V2341 0
V2342 0
V2343 0
V2344 0
V2345 0
V2346 0
V2347 0
V2348 0
V2349 0
V2350 0
V2351 0
V2352 0
V2353 0
V2354 0
V2355 0
V2356 0
V2357 0
V2358 0
V2359 0
V2360 0
V2361 0
V2362 0
V2363 0
V2364 0
V2365 1
V2366 0
V2367 0
V2368 0
V2369 0
V2370 0
V2371 0
V2372 0
V2373 0
V2374 0
V2375 0
V2376 0
V2377 0
V2378 0
V2379 0
V2380 0
V2381 0
V2382 0
V2383 0
V2384 0
V2385 0
V2386 0
V2387 0
V2388 0
V2389 0
V2390 0
V2391 0
V2392 0
V2393 0
V2394 0
V2395 0
V2396 0
V2397 0
V2398 0
V2399 0
V2400 0
V2401 0
V2402 0
V2403 0
V2404 0
V2405 0
V2406 0
V2407 0
V2408 0
V2409 0
V2410 0
V2411 0
V2412 0
V2413 0
V2414 0
V2415 0
V2416 0
V2417 0
V2418 0
V2419 0
V2420 1
V2421 0
V2422 0
V2423 0
V2424 0
V2425 0
V2426 0
V2427 0
V2428 0
V2429 0
V2430 0
V2431 0
V2432 0
V2433 0
V2434 0
V2435 0
V2436 0
V2437 0
V2438 0
V2439 0
V2440 0
V2441 0
V2442 0
V2443 0
V2444 0
V2445 0
V2446 0
V2447 0
V2448 0
V2449 0
V2450 0
V2451 0
V2452 0
V2453 0
V2454 0
V2455 0
V2456 0
V2457 0
V2458 0
V2459 0
V2460 0
V2461 0
V2462 0
V2463 0
V2464 0
V2465 0
V2466 0
V2467 0
V2468 0
V2469 0
V2470 0
V2471 0
V2472 0
V2473 1
V2474 0
V2475 0
V2476 0
V2477 0
V2478 0
V2479 0
V2480 0
V2481 0
V2482 0
V2483 0
V2484 0
V2485 0
V2486 0
V2487 0
V2488 0
V2489 0
V2490 0
V2491 0
V2492 0
V2493 0
V2494 0
V2495 0
V2496 0
V2497 0
V2498 0
V2499 0
V2500 0
V2501 0
V2502 0
V2503 0
V2504 0
V2505 0
V2506 0
V2507 0
V2508 0
V2509 0
V2510 0
V2511 0
V2512 0
V2513 0
V2514 0
V2515 0
V2516 0
V2517 0
V2518 0
V2519 0
V2520 0
V2521 0
V2522 0
V2523 0
V2524 0
V2525 0
V2526 0
V2527 0
V2528 0
V2529 0
V2530 0
V2531 0
V2532 0
V2533 0
V2534 0
V2535 0
V2536 0
V2537 0
V2538 0
V2539 0
V2540 0
V2541 0
V2542 0
V2543 0
V2544 0
V2545 0
V2546 0
V2547 0
V2548 0
V2549 0
V2550 0
V2551 0
V2552 0
V2553 0
V2554 0
V2555 0
V2556 0
V2557 0
V2558 0
V2559 0
V2560 0
V2561 0
V2562 0
V2563 0
V2564 0
V2565 0
V2566 0
V2567 0
V2568 0
V2569 0
V2570 0
V2571 0
V2572 0
V2573 0
V2574 0
V2575 0
V2576 0
V2577 0
V2578 0
V2579 0
V2580 0
V2581 0
V2582 0
V2583 0
V2584 0
V2585 0
V2586 0
V2587 0
V2588 0
V2589 0
V2590 0
V2591 0
V2592 0
V2593 0
V2594 1
V2595 0
V2596 0
V2597 0
V2598 0
V2599 0
V2600 0
V2601 0
V2602 0
V2603 0
V2604 0
V2605 0
V2606 0
V2607 0
V2608 0
V2609 0
V2610 0
V2611 0
V2612 0
V2613 0
V2614 0
V2615 0
V2616 0
V2617 0
V2618 0
V2619 0
V2620 0
V2621 0
V2622 0
V2623 0
V2624 0
V2625 0
V2626 0
V2627 0
V2628 0
V2629 0
V2630 0
V2631 0
V2632 0
V2633 0
V2634 0
V2635 0
V2636 0
V2637 0
V2638 0
V2639 0
V2640 0
V2641 0
V2642 0
V2643 0
V2644 0
V2645 0
V2646 0
V2647 0
V2648 0
V2649 0
V2650 0
V2651 0
V2652 0
V2653 0
V2654 0
V2655 0
V2656 0
V2657 0
V2658 0
V2659 0
V2660 0
V2661 1
V2662 0
V2663 0
V2664 0
V2665 0
V2666 0
V2667 0
V2668 0
V2669 0
V2670 0
V2671 0
V2672 0
V2673 0
V2674 0
V2675 0
V2676 0
V2677 0
V2678 0
V2679 0
V2680 0
V2681 0
V2682 0
V2683 0
V2684 0
V2685 0
V2686 0
V2687 0
V2688 1
V2689 0
V2690 0
V2691 0
V2692 0
V2693 0
V2694 0
V2695 0
V2696 0
V2697 0
V2698 0
V2699 0
V2700 0
V2701 0
V2702 0
V2703 0
V2704 0
V2705 0
V2706 0
V2707 0
V2708 0
V2709 0
V2710 0
V2711 0
V2712 0
V2713 0
V2714 0
V2715 0
V2716 0
V2717 0
V2718 0
V2719 0
V2720 0
V2721 0
V2722 0
V2723 0
V2724 0
V2725 0
V2726 0
V2727 0
V2728 0
V2729 0
V2730 0
V2731 0
V2732 0
V2733 0
V2734 1
V2735 0
V2736 0
V2737 0
V2738 0
V2739 0
V2740 0
V2741 0
V2742 0
V2743 0
V2744 0
V2745 0
V2746 0
V2747 0
V2748 0
V2749 0
V2750 0
V2751 0
V2752 0
V2753 0
V2754 0
V2755 0
V2756 0
V2757 0
V2758 0
V2759 0
V2760 0
V2761 0
V2762 0
V2763 0
V2764 0
V2765 0
V2766 0
V2767 0
V2768 0
V2769 0
V2770 0
V2771 0
V2772 0
V2773 0
V2774 0
V2775 0
V2776 0
V2777 0
V2778 0
V2779 0
V2780 0
V2781 0
V2782 0
V2783 0
V2784 0
V2785 0
V2786 0
V2787 0
V2788 0
V2789 0
V2790 0
V2791 0
V2792 0
V2793 0
V2794 0
V2795 0
V2796 0
V2797 0
V2798 0
V2799 0
V2800 0
V2801 0
V2802 0
V2803 0
V2804 0
V2805 0
V2806 1
V2807 0
V2808 0
V2809 0
V2810 0
V2811 0
V2812 0
V2813 0
V2814 0
V2815 0
V2816 0
V2817 0
V2818 0
V2819 0
V2820 0
V2821 0
V2822 0
V2823 0
V2824 0
V2825 0
V2826 0
V2827 0
V2828 0
V2829 0
V2830 0
V2831 0
V2832 0
V2833 0
V2834 0
V2835 0
V2836 0
V2837 0
V2838 0
V2839 0
V2840 0
V2841 0
V2842 0
V2843 0
V2844 0
V2845 0
V2846 0
V2847 0
V2848 0
V2849 0
V2850 0
V2851 0
V2852 0
V2853 0
V2854 0
V2855 0
V2856 0
V2857 0
V2858 0
V2859 0
V2860 0
V2861 0
V2862 0
V2863 0
V2864 0
V2865 0
V2866 0
V2867 0
V2868 0
V2869 0
V2870 0
V2871 0
V2872 0
V2873 0
V2874 0
V2875 0
V2876 0
V2877 0
V2878 0
V2879 0
V2880 0
V2881 0
V2882 0
V2883 0
V2884 0
V2885 0
V2886 0
V2887 0
V2888 0
V2889 0
V2890 0
V2891 0
V2892 0
V2893 0
V2894 0
V2895 0
V2896 0
V2897 0
V2898 0
V2899 0
V2900 0
V2901 0
V2902 0
V2903 0
V2904 0
V2905 0
V2906 0
V2907 0
V2908 0
V2909 0
V2910 0
V2911 0
V2912 0
V2913 0
V2914 0
V2915 0
V2916 0
V2917 0
V2918 0
V2919 0
V2920 0
V2921 0
V2922 0
V2923 1
V2924 0
V2925 0
V2926 0
V2927 0
V2928 0
V2929 0
V2930 0
V2931 0
V2932 0
V2933 0
V2934 0
V2935 0
V2936 0
V2937 0
V2938 0
V2939 0
V2940 0
V2941 0
V2942 0
V2943 0
V2944 0
V2945 0
V2946 0
V2947 0
V2948 0
V2949 0
V2950 0
V2951 0
V2952 0
V2953 0
V2954 0
V2955 0
V2956 0
V2957 0
V2958 1
V2959 0
V2960 0
V2961 0
V2962 0
V2963 0
V2964 0
V2965 0
V2966 0
V2967 0
V2968 0
V2969 0
V2970 0
V2971 0
V2972 0
V2973 0
V2974 0
V2975 0
V2976 0
V2977 0
V2978 0
V2979 0
V2980 0
V2981 0
V2982 0
V2983 0
V2984 0
V2985 0
V2986 0
V2987 0
V2988 0
V2989 0
V2990 0
V2991 0
V2992 0
V2993 0
V2994 0
V2995 0
V2996 0
V2997 0
V2998 0
V2999 0
V3000 0
V3001 0
V3002 0
V3003 0
V3004 0
V3005 0
V3006 0
V3007 0
V3008 0
V3009 0
V3010 0
V3011 0
V3012 0
V3013 0
V3014 0
V3015 0
V3016 0
V3017 0
V3018 0
V3019 0
V3020 0
V3021 1
V3022 0
V3023 0
V3024 0
V3025 0
V3026 0
V3027 0
V3028 0
V3029 0
V3030 0
V3031 0
V3032 0
V3033 0
V3034 0
V3035 0
V3036 0
V3037 0
V3038 0
V3039 0
V3040 0
V3041 0
V3042 0
V3043 0
V3044 0
V3045 0
V3046 0
V3047 0
V3048 0
V3049 0
V3050 0
V3051 0
V3052 0
V3053 0
V3054 0
V3055 0
V3056 0
V3057 0
V3058 0
V3059 0
V3060 0
V3061 0
V3062 0
V3063 0
V3064 0
V3065 0
V3066 0
V3067 0
V3068 0
V3069 0
V3070 0
V3071 0
V3072 0
V3073 0
V3074 0
V3075 0
V3076 0
V3077 0
V3078 0
V3079 1
V3080 0
V3081 0
V3082 0
V3083 0
V3084 0
V3085 0
V3086 0
V3087 0
V3088 0
V3089 0
V3090 0
V3091 0
V3092 0
V3093 0
V3094 0
V3095 0
V3096 0
V3097 0
V3098 0
V3099 0
V3100 0
V3101 0
V3102 0
V3103 0
V3104 0
V3105 0
V3106 0
V3107 0
V3108 0
V3109 0
V3110 0
V3111 0
V3112 0
V3113 0
V3114 0
V3115 0
V3116 0
V3117 0
V3118 0
V3119 0
V3120 0
V3121 0
V3122 0
V3123 0
V3124 0
V3125 0
V3126 0
V3127 0
V3128 0
V3129 0
V3130 0
V3131 0
V3132 0
V3133 0
V3134 0
V3135 0
V3136 0
V3137 0
V3138 1
V3139 0
V3140 0
V3141 0
V3142 0
V3143 0
V3144 0
V3145 0
V3146 0
V3147 0
V3148 0
V3149 0
V3150 0
V3151 0
V3152 0
V3153 0
V3154 0
V3155 0
V3156 0
V3157 0
V3158 0
V3159 0
V3160 0
V3161 0
V3162 0
V3163 0
V3164 0
V3165 0
V3166 0
V3167 0
V3168 0
V3169 0
V3170 0
V3171 0
V3172 0
V3173 0
V3174 0
V3175 0
V3176 0
V3177 0
V3178 0
V3179 0
V3180 0
V3181 0
V3182 0
V3183 0
V3184 0
V3185 0
V3186 0
V3187 0
V3188 0
V3189 0
V3190 0
V3191 0
V3192 0
V3193 0
V3194 0
V3195 0
V3196 0
V3197 0
V3198 0
V3199 0
V3200 0
V3201 0
V3202 0
V3203 0
V3204 0
V3205 0
V3206 0
V3207 0
V3208 0
V3209 0
V3210 0
V3211 0
V3212 0
V3213 0
V3214 0
V3215 0
V3216 0
V3217 0
V3218 0
V3219 0
V3220 0
V3221 0
V3222 0
V3223 0
V3224 0
V3225 0
V3226 0
V3227 0
V3228 0
V3229 0
V3230 0
V3231 1
V3232 0
V3233 0
V3234 0
V3235 0
V3236 0
V3237 0
V3238 0
V3239 0
V3240 0
V3241 0
V3242 0
V3243 0
V3244 0
V3245 0
V3246 0
V3247 0
V3248 0
V3249 0
V3250 0
V3251 0
V3252 0
V3253 0
V3254 0
V3255 0
V3256 0
V3257 0
V3258 0
V3259 0
V3260 0
V3261 0
V3262 0
V3263 0
V3264 0
V3265 0
V3266 0
V3267 0
V3268 0
V3269 0
V3270 0
V3271 0
V3272 0
V3273 0
V3274 0
V3275 0
V3276 0
V3277 0
V3278 0
V3279 0
V3280 0
V3281 0
V3282 0
V3283 0
V3284 0
V3285 0
V3286 0
V3287 0
V3288 0
V3289 0
V3290 0
V3291 1
V3292 0
V3293 0
V3294 0
V3295 0
V3296 0
V3297 0
V3298 0
V3299 0
V3300 0
V3301 0
V3302 0
V3303 0
V3304 0
V3305 0
V3306 0
V3307 0
V3308 0
V3309 0
V3310 0
V3311 0
V3312 0
V3313 0
V3314 0
V3315 0
V3316 0
V3317 0
V3318 0
V3319 0
V3320 1
V3321 0
V3322 0
V3323 0
V3324 0
V3325 0
V3326 0
V3327 0
V3328 0
V3329 0
V3330 0
V3331 0
V3332 0
V3333 0
V3334 0
V3335 0
V3336 0
V3337 0
V3338 0
V3339 0
V3340 0
V3341 0
V3342 0
V3343 0
V3344 0
V3345 0
V3346 0
V3347 0
V3348 0
V3349 0
V3350 0
V3351 0
V3352 0
V3353 0
V3354 0
V3355 0
V3356 0
V3357 0
V3358 0
V3359 0
V3360 0
V3361 0
V3362 0
V3363 0
V3364 0
V3365 0
V3366 0
V3367 0
V3368 0
V3369 0
V3370 0
V3371 0
V3372 0
V3373 0
V3374 0
V3375 0
V3376 0
V3377 0
V3378 0
V3379 0
V3380 0
V3381 0
V3382 0
V3383 0
V3384 0
V3385 0
V3386 0
V3387 0
V3388 0
V3389 0
V3390 0
V3391 0
V3392 0
V3393 0
V3394 0
V3395 0
V3396 0
V3397 0
V3398 0
V3399 0
V3400 0
V3401 0
V3402 0
V3403 0
V3404 0
V3405 0
V3406 0
V3407 0
V3408 0
V3409 0
V3410 0
V3411 0
V3412 0
V3413 0
V3414 0
V3415 0
V3416 0
V3417 0
V3418 0
V3419 0
V3420 0
V3421 0
V3422 0
V3423 0
V3424 0
V3425 0
V3426 0
V3427 0
V3428 0
V3429 0
V3430 0
V3431 0
V3432 0
V3433 0
V3434 0
V3435 0
V3436 0
V3437 0
V3438 0
V3439 0
V3440 0
V3441 0
V3442 0
V3443 0
V3444 1
V3445 0
V3446 0
V3447 0
V3448 0
V3449 0
V3450 0
V3451 0
V3452 0
V3453 0
V3454 0
V3455 0
V3456 0
V3457 0
V3458 0
V3459 0
V3460 0
V3461 0
V3462 0
V3463 0
V3464 0
V3465 0
V3466 0
V3467 0
V3468 0
V3469 0
V3470 0
V3471 0
V3472 0
V3473 0
V3474 0
V3475 0
V3476 0
V3477 0
V3478 0
V3479 0
V3480 0
V3481 0
V3482 0
V3483 0
V3484 0
V3485 1
V3486 0
V3487 0
V3488 0
V3489 0
V3490 0
V3491 0
V3492 0
V3493 0
V3494 0
V3495 0
V3496 0
V3497 0
V3498 0
V3499 0
V3500 0
V3501 0
V3502 0
V3503 0
V3504 0
V3505 0
V3506 0
V3507 0
V3508 0
V3509 0
V3510 0
V3511 0
V3512 0
V3513 0
V3514 0
V3515 0
V3516 0
V3517 0
V3518 0
V3519 0
V3520 0
V3521 0
V3522 0
V3523 0
V3524 0
V3525 0
V3526 0
V3527 0
V3528 0
V3529 0
V3530 0
V3531 0
V3532 0
V3533 0
V3534 0
V3535 0
V3536 0
V3537 0
V3538 0
V3539 0
V3540 1
V3541 0
V3542 0
V3543 0
V3544 0
V3545 0
V3546 0
V3547 0
V3548 0
V3549 0
V3550 0
V3551 0
V3552 0
V3553 0
V3554 0
V3555 0
V3556 0
V3557 0
V3558 0
V3559 0
V3560 0
V3561 0
V3562 0
V3563 0
V3564 0
V3565 0
V3566 0
V3567 0
V3568 0
V3569 0
V3570 0
V3571 0
V3572 0
V3573 0
V3574 0
V3575 0
V3576 0
V3577 0
V3578 0
V3579 0
V3580 0
V3581 0
V3582 0
V3583 0
V3584 0
V3585 0
V3586 0
V3587 0
V3588 0
V3589 0
V3590 0
V3591 0
V3592 0
V3593 0
V3594 0
V3595 0
V3596 0
V3597 0
V3598 0
V3599 0
V3600 0
V3601 0
V3602 0
V3603 0
V3604 0
V3605 0
V3606 0
V3607 0
V3608 0
V3609 0
V3610 1
V3611 0
V3612 0
V3613 0
V3614 0
V3615 0
V3616 0
V3617 0
V3618 0
V3619 0
V3620 0
V3621 0
V3622 0
V3623 0
V3624 0
V3625 0
V3626 0
V3627 0
V3628 0
V3629 0
V3630 0
V3631 0
V3632 0
V3633 0
V3634 0
V3635 0
V3636 0
V3637 0
V3638 0
V3639 0
V3640 0
V3641 0
V3642 0
V3643 0
V3644 0
V3645 0
V3646 0
V3647 0
V3648 0
V3649 0
V3650 0
V3651 0
V3652 0
V3653 0
V3654 0
V3655 0
V3656 0
V3657 0
V3658 0
V3659 0
V3660 1
V3661 0
V3662 0
V3663 0
V3664 0
V3665 0
V3666 0
V3667 0
V3668 0
V3669 0
V3670 0
V3671 0
V3672 0
V3673 0
V3674 0
V3675 0
V3676 0
V3677 0
V3678 0
V3679 0
V3680 0
V3681 0
V3682 0
V3683 0
V3684 0
V3685 0
V3686 0
V3687 0
V3688 0
V3689 0
V3690 0
V3691 0
V3692 0
V3693 0
V3694 0
V3695 0
V3696 0
V3697 0
V3698 0
V3699 0
V3700 0
V3701 0
V3702 0
V3703 0
V3704 0
V3705 0
V3706 0
V3707 0
V3708 0
V3709 0
V3710 0
V3711 0
V3712 0
V3713 0
V3714 0
V3715 0
V3716 0
V3717 0
V3718 0
V3719 0
V3720 0
V3721 1
V3722 0
V3723 0
V3724 0
V3725 0
V3726 0
V3727 0
V3728 0
V3729 0
V3730 0
V3731 0
V3732 0
V3733 0
V3734 0
V3735 0
V3736 0
V3737 0
V3738 0
V3739 0
V3740 0
V3741 0
V3742 0
V3743 0
V3744 0
V3745 0
V3746 0
V3747 0
V3748 0
V3749 0
V3750 0
V3751 0
V3752 0
V3753 0
V3754 0
V3755 0
V3756 0
V3757 0
V3758 0
V3759 0
V3760 0
V3761 0
V3762 0
V3763 0
V3764 0
V3765 0
V3766 0
V3767 0
V3768 0
V3769 0
V3770 0
V3771 0
V3772 0
V3773 0
V3774 0
V3775 0
V3776 0
V3777 0
V3778 0
V3779 0
V3780 0
V3781 0
V3782 0
V3783 0
V3784 0
V3785 0
V3786 0
V3787 0
V3788 0
V3789 0
V3790 0
V3791 0
V3792 0
V3793 0
V3794 0
V3795 0
V3796 0
V3797 0
V3798 0
V3799 0
V3800 0
V3801 0
V3802 0
V3803 0
V3804 0
V3805 0
V3806 0
V3807 0
V3808 0
V3809 0
V3810 0
V3811 0
V3812 0
V3813 0
V3814 0
V3815 0
V3816 0
V3817 0
V3818 0
V3819 0
V3820 0
V3821 0
V3822 0
V3823 0
V3824 1
V3825 0
V3826 0
V3827 0
V3828 0
V3829 0
V3830 0
V3831 0
V3832 0
V3833 0
V3834 0
V3835 0
V3836 0
V3837 0
V3838 0
V3839 0
V3840 0
V3841 0
V3842 0
V3843 1
V3844 0
V3845 0
V3846 0
V3847 0
V3848 0
V3849 0
V3850 0
V3851 0
V3852 0
V3853 0
V3854 0
V3855 0
V3856 0
V3857 0
V3858 0
V3859 0
V3860 0
V3861 0
V3862 0
V3863 0
V3864 0
V3865 0
V3866 0
V3867 0
V3868 0
V3869 0
V3870 0
V3871 0
V3872 0
V3873 0
V3874 0
V3875 0
V3876 0
V3877 0
V3878 0
V3879 0
V3880 0
V3881 0
V3882 0
V3883 0
V3884 0
V3885 0
V3886 0
V3887 0
V3888 0
V3889 0
V3890 0
V3891 0
V3892 0
V3893 0
V3894 0
V3895 0
V3896 0
V3897 0
V3898 0
V3899 0
V3900 0
V3901 0
V3902 0
V3903 0
V3904 0
V3905 0
V3906 0
V3907 0
V3908 0
V3909 0
V3910 0
V3911 0
V3912 1
V3913 0
V3914 0
V3915 0
V3916 0
V3917 0
V3918 0
V3919 0
V3920 0
V3921 0
V3922 0
V3923 0
V3924 0
V3925 0
V3926 0
V3927 0
V3928 0
V3929 0
V3930 0
V3931 0
V3932 0
V3933 0
V3934 0
V3935 0
V3936 0
V3937 0
V3938 0
V3939 0
V3940 0
V3941 0
V3942 0
V3943 0
V3944 0
V3945 0
V3946 0
V3947 0
V3948 0
V3949 0
V3950 0
V3951 0
V3952 0
V3953 0
V3954 0
V3955 0
V3956 0
V3957 0
V3958 0
V3959 0
V3960 0
V3961 0
V3962 0
V3963 0
V3964 0
V3965 0
V3966 0
V3967 0
V3968 0
V3969 0
V3970 0
V3971 0
V3972 0
V3973 0
V3974 0
V3975 0
V3976 0
V3977 0
V3978 0
V3979 0
V3980 0
V3981 0
V3982 0
V3983 0
V3984 0
V3985 0
V3986 0
V3987 1
V3988 0
V3989 0
V3990 0
V3991 0
V3992 0
V3993 0
V3994 0
V3995 0
V3996 0
V3997 0
V3998 0
V3999 0
V4000 0
V4001 0
V4002 0
V4003 0
V4004 0
V4005 0
V4006 0
V4007 0
V4008 0
V4009 0
V4010 0
V4011 0
V4012 0
V4013 0
V4014 0
V4015 0
V4016 0
V4017 0
V4018 0
V4019 0
V4020 0
V4021 0
V4022 0
V4023 0
V4024 0
V4025 0
V4026 0
V4027 0
V4028 0
V4029 0
V4030 0
V4031 0
V4032 0
V4033 0
V4034 0
V4035 0
V4036 0
V4037 0
V4038 0
V4039 0
V4040 0
V4041 0
V4042 0
V4043 0
V4044 0
V4045 0
V4046 0
V4047 0
V4048 0
V4049 0
V4050 0
V4051 0
V4052 0
V4053 0
V4054 0
V4055 0
V4056 0
V4057 0
V4058 0
V4059 0
V4060 0
V4061 0
V4062 0
V4063 0
V4064 0
V4065 0
V4066 0
V4067 1
V4068 0
V4069 0
V4070 0
V4071 0
V4072 0
V4073 0
V4074 0
V4075 0
V4076 0
V4077 0
V4078 0
V4079 0
V4080 0
V4081 0
V4082 0
V4083 0
V4084 0
V4085 0
V4086 0
V4087 0
V4088 0
V4089 0
V4090 0
V4091 0
V4092 0
V4093 0
V4094 0
V4095 0
V4096 0
V4097 0
V4098 0
V4099 0
V4100 0
V4101 0
V4102 0
V4103 0
V4104 0
V4105 0
V4106 0
V4107 0
V4108 0
V4109 0
V4110 0
V4111 0
V4112 0
V4113 0
V4114 0
V4115 0
V4116 0
V4117 0
V4118 0
V4119 0
V4120 0
V4121 1
V4122 0
V4123 0
V4124 0
V4125 0
V4126 0
V4127 0
V4128 0
V4129 0
V4130 0
V4131 0
V4132 0
V4133 0
V4134 0
V4135 0
V4136 0
V4137 0
V4138 0
V4139 0
V4140 0
V4141 0
V4142 0
V4143 0
V4144 0
V4145 0
V4146 0
V4147 0
V4148 0
V4149 0
V4150 0
V4151 0
V4152 0
V4153 0
V4154 0
V4155 0
V4156 0
V4157 0
V4158 0
V4159 0
V4160 0
V4161 0
V4162 0
V4163 0
V4164 0
V4165 0
V4166 0
V4167 0
V4168 0
V4169 0
V4170 0
V4171 0
V4172 0
V4173 0
V4174 0
V4175 0
V4176 0
V4177 0
V4178 0
V4179 0
V4180 0
V4181 0
V4182 0
V4183 0
V4184 0
V4185 0
V4186 0
V4187 0
V4188 0
V4189 0
V4190 0
V4191 0
V4192 0
V4193 0
V4194 0
V4195 0
V4196 0
V4197 0
V4198 0
V4199 0
V4200 0
V4201 0
V4202 0
V4203 0
V4204 0
V4205 0
V4206 0
V4207 1
V4208 0
V4209 0
V4210 0
V4211 0
V4212 0
V4213 0
V4214 0
V4215 0
V4216 0
V4217 0
V4218 0
V4219 0
V4220 0
V4221 0
V4222 0
V4223 0
V4224 0
# Rows 388
C000E 1
C001E 1
C002E 1
C003E 1
C004E 1
C005E 1
C006E 1
C007E 1
C008E 1
C009E 1
C010E 1
C011E 1
C012E 1
C013E 1
C014E 1
C015E 1
C016E 1
C017E 1
C018E 1
C019E 1
C020E 1
C021E 1
C022E 1
C023E 1
C024E 1
C025E 1
C026E 1
C027E 1
C028E 1
C029E 1
C030E 1
C031E 1
C032E 1
C033E 1
C034E 1
C035E 1
C036E 1
C037E 1
C038E 1
C039E 1
C040E 1
C041E 1
C042E 1
C043E 1
C044E 1
C045E 1
C046E 1
C047E 1
C048E 1
C049E 1
C050E 1
C051E 1
C052E 1
C053E 1
C054E 1
C055E 1
C056E 1
C057E 1
C058E 1
C059E 1
C060E 1
C061E 1
C062E 1
C063E 1
C064E 1
C065E 1
C066E 1
C067E 1
C068E 1
C069E 1
C070E 1
C071E 1
C072E 1
C073E 1
C074E 1
C075E 1
C076E 1
C077E 1
C078E 1
C079E 1
C080E 1
C081E 1
C082E 1
C083E 1
C084E 1
C085E 1
C086E 1
C087E 1
C088E 1
C089E 1
C090E 1
C091E 1
C092E 1
C093E 1
C094E 1
C095E 1
C096E 1
C097E 1
C098E 1
C099E 1
C100E 1
C101E 1
C102E 1
C103E 1
C104E 1
C105E 1
C106E 1
C107E 1
C108E 1
C109E 1
C110E 1
C111E 1
C112E 1
C113E 1
C114E 1
C115E 1
C116E 1
C117E 1
C118E 1
C119E 1
C120E 1
C121E 1
C122E 1
C123E 1
C124E 1
C125E 1
C126E 1
C127E 1
C128E 1
C129E 1
C130L 0
C131L 0
C132L 0
C133L 0
C134L 0
C135L 0
C136L 0
C137L 0
C138L 0
C139L 0
C140L 0
C141L 0
C142L 1
C143L 0
C144L 0
C145L 0
C146L 0
C147L 0
C148L 1
C149L 1
C150L 0
C151L 0
C152L 1
C153L 0
C154L 1
C155L 0
C156L 1
C157L 0
C158L 0
C159L 1
C160L 1
C161L 1
C162L 1
C163L 1
C164L 0
C165L 1
C166L 0
C167L 0
C168L 1
C169L 1
C170L 0
C171L 1
C172L 0
C173L 1
C174L 0
C175L 1
C176L 1
C177L 1
C178L 0
C179L 1
C180L 1
C181L 1
C182L 1
C183L 0
C184L 1
C185L 0
C186L 1
C187L 1
C188L 1
C189L 0
C190L 1
C191L 1
C192L 1
C193L 1
C194L 1
C195L 0
C196L 1
C197L 1
C198L 1
C199L 1
C200L 1
C201L 1
C202L 1
C203L 1
C204L 1
C205L 1
C206L 1
C207L 1
C208L 1
C209L 1
C210L 1
C211L 0
C212L 1
C213L 1
C214L 1
C215L 0
C216L 0
C217L 1
C218L 1
C219L 1
C220L 1
C221L 1
C222L 1
C223L 1
C224L 0
C225L 1
C226L 0
C227L 0
C228L 1
C229L 1
C230L 0
C231L 1
C232L 0
C233L 0
C234L 0
C235L 0
C236L 0
C237L 1
C238L 0
C239L 0
C240L 0
C241L 1
C242L 1
C243L 0
C244L 0
C245L 0
C246L 1
C247L 0
C248L 0
C249L 0
C250L 0
C251L 0
C252L 0
C253L 0
C254L 0
C255L 0
C256L 0
C257L 0
C258L 0
C259L 0
C260L 0
C261L 0
C262L 0
C263L 0
C264L 0
C265L 0
C266L 0
C267L 0
C268L 1
C269L 0
C270L 0
C271L 0
C272L 0
C273L 0
C274L 0
C275L 0
C276L 0
C277L 1
C278L 0
C279L 0
C280L 1
C281L 1
C282L 0
C283L 0
C284L 1
C285L 1
C286L 1
C287L 0
C288L 0
C289L 1
C290L 0
C291L 1
C292L 1
C293L 0
C294L 1
C295L 1
C296L 1
C297L 1
C298L 1
C299L 1
C300L 1
C301L 1
C302L 1
C303L 1
C304L 1
C305L 1
C306L 1
C307L 1
C308L 0
C309L 0
C310L 1
C311L 1
C312L 0
C313L 1
C314L 0
C315L 1
C316L 0
C317L 1
C318L 1
C319L 0
C320L 1
C321L 0
C322L 1
C323L 0
C324L 0
C325L 1
C326L 1
C327L 1
C328L 0
C329L 1
C330L 1
C331L 0
C332L 1
C333L 1
C334L 1
C335L 1
C336L 1
C337L 0
C338L 1
C339L 1
C340L 1
C341L 1
C342L 0
C343L 1
C344L 1
C345L 1
C346L 1
C347L 1
C348L 1
C349L 0
C350L 0
C351L 1
C352L 0
C353L 1
C354L 1
C355L 1
C356L 0
C357L 0
C358L 1
C359L 1
C360L 1
C361L 1
C362L 1
C363L 0
C364L 1
C365L 0
C366L 0
C367L 0
C368L 0
C369L 1
C370L 0
C371L 1
C372L 0
C373L 0
C374L 1
C375L 0
C376L 0
C377L 0
C378L 0
C379L 0
C380L 0
C381L 0
C382L 0
C383L 0
C384L 0
C385L 0
C386L 0
C387L 0

# Dual solution values
None

# Basis
HiGHS v1
None
